(set-info :source |printed by MathSAT|)
(declare-fun |!{$(in_main#0)<N>}| () Int)
(declare-fun |!{$(in_main#0)<N>}.next| () Int)
(declare-fun |!{$(in_main#0)<hi>}| () Int)
(declare-fun |!{$(in_main#0)<hi>}.next| () Int)
(declare-fun |!{$(in_main#0)<k>}| () Int)
(declare-fun |!{$(in_main#0)<k>}.next| () Int)
(declare-fun |!{$(in_main#0)<k#1>}| () Int)
(declare-fun |!{$(in_main#0)<k#1>}.next| () Int)
(declare-fun |!{$(in_main#0)<k#2>}| () Int)
(declare-fun |!{$(in_main#0)<k#2>}.next| () Int)
(declare-fun |!{$(in_main#0)<l>}| () Int)
(declare-fun |!{$(in_main#0)<l>}.next| () Int)
(declare-fun |!{$(in_main#0)<lo>}| () Int)
(declare-fun |!{$(in_main#0)<lo>}.next| () Int)
(declare-fun |!{$(in_main#0)<v>}| () Int)
(declare-fun |!{$(in_main#0)<v>}.next| () Int)
(declare-fun |!{$(in_main#0)<array.1>}| () (Array Int Int))
(declare-fun |!{$(in_main#0)<array.1>}.next| () (Array Int Int))
(declare-fun |!{$(in_main#0)<$(in___VERIFIER_nondet_int#0)<h#<__VERIFIER_nondet_int.return>>>}| () Int)
(declare-fun |!{$(in_main#0)<$(in___VERIFIER_nondet_int#2)<h#<__VERIFIER_nondet_int.return>>>}| () Int)
(declare-fun |!{$(in_main#0)<$(in___VERIFIER_nondet_int#3)<h#<__VERIFIER_nondet_int.return>>>}| () Int)
(declare-fun |!{$(in_main#0)<$(in___VERIFIER_nondet_int#5)<h#<__VERIFIER_nondet_int.return>>>}| () Int)
(declare-fun !pc () Int)
(declare-fun !pc.next () Int)
(declare-fun |%{$(in_main#0)<hi>}#1| () Int)
(declare-fun |%{$(in_main#0)<k#1>}#1| () Int)
(declare-fun |%{$(in_main#0)<k#2>}#1| () Int)
(declare-fun |%{$(in_main#0)<l>}#1| () Int)
(declare-fun |%{$(in_main#0)<lo>}#1| () Int)
(declare-fun |%{$(in_main#0)<v>}#1| () Int)
(declare-fun |%{$(in_main#0)<array.1>}#1| () (Array Int Int))
(declare-fun |%{$(in_main#0)<hi>}#2| () Int)
(declare-fun |%{$(in_main#0)<lo>}#2| () Int)
(declare-fun |%{$(in_main#0)<idx>}#3| () Int)
(define-fun .def_53 () Int (! !pc :next !pc.next))
(define-fun .def_56 () Bool (! (= .def_53 2) :init true))
(define-fun .def_390 () Bool (= .def_53 46))
(define-fun .def_360 () Bool (= !pc.next 74))
(define-fun .def_393 () Bool (and .def_360 .def_390))
(define-fun .def_386 () Bool (= |!{$(in_main#0)<v>}.next| |!{$(in_main#0)<$(in___VERIFIER_nondet_int#3)<h#<__VERIFIER_nondet_int.return>>>}|))
(define-fun .def_381 () Bool (= |!{$(in_main#0)<k#1>}.next| 0))
(define-fun .def_10 () Int (! |!{$(in_main#0)<hi>}| :next |!{$(in_main#0)<hi>}.next|))
(define-fun .def_112 () Bool (= .def_10 |!{$(in_main#0)<hi>}.next|))
(define-fun .def_8 () Int (! |!{$(in_main#0)<N>}| :next |!{$(in_main#0)<N>}.next|))
(define-fun .def_110 () Bool (= .def_8 |!{$(in_main#0)<N>}.next|))
(define-fun .def_129 () Bool (and .def_110 .def_112))
(define-fun .def_12 () Int (! |!{$(in_main#0)<k>}| :next |!{$(in_main#0)<k>}.next|))
(define-fun .def_114 () Bool (= .def_12 |!{$(in_main#0)<k>}.next|))
(define-fun .def_130 () Bool (and .def_114 .def_129))
(define-fun .def_382 () Bool (and .def_130 .def_381))
(define-fun .def_16 () Int (! |!{$(in_main#0)<k#2>}| :next |!{$(in_main#0)<k#2>}.next|))
(define-fun .def_118 () Bool (= .def_16 |!{$(in_main#0)<k#2>}.next|))
(define-fun .def_383 () Bool (and .def_118 .def_382))
(define-fun .def_18 () Int (! |!{$(in_main#0)<l>}| :next |!{$(in_main#0)<l>}.next|))
(define-fun .def_120 () Bool (= .def_18 |!{$(in_main#0)<l>}.next|))
(define-fun .def_384 () Bool (and .def_120 .def_383))
(define-fun .def_20 () Int (! |!{$(in_main#0)<lo>}| :next |!{$(in_main#0)<lo>}.next|))
(define-fun .def_122 () Bool (= .def_20 |!{$(in_main#0)<lo>}.next|))
(define-fun .def_385 () Bool (and .def_122 .def_384))
(define-fun .def_387 () Bool (and .def_385 .def_386))
(define-fun .def_24 () (Array Int Int) (! |!{$(in_main#0)<array.1>}| :next |!{$(in_main#0)<array.1>}.next|))
(define-fun .def_126 () Bool (= .def_24 |!{$(in_main#0)<array.1>}.next|))
(define-fun .def_388 () Bool (and .def_126 .def_387))
(define-fun .def_365 () Bool (<= .def_8 .def_12))
(define-fun .def_389 () Bool (and .def_365 .def_388))
(define-fun .def_394 () Bool (and .def_389 .def_393))
(define-fun .def_96 () Bool (= !pc.next 46))
(define-fun .def_391 () Bool (and .def_96 .def_390))
(define-fun .def_367 () (Array Int Int) (store .def_24 .def_12 |!{$(in_main#0)<$(in___VERIFIER_nondet_int#2)<h#<__VERIFIER_nondet_int.return>>>}|))
(define-fun .def_378 () Bool (= |!{$(in_main#0)<array.1>}.next| .def_367))
(define-fun .def_369 () Int (* (- 1) |!{$(in_main#0)<k>}.next|))
(define-fun .def_370 () Int (+ .def_12 .def_369))
(define-fun .def_371 () Bool (= .def_370 (- 1)))
(define-fun .def_372 () Bool (and .def_129 .def_371))
(define-fun .def_14 () Int (! |!{$(in_main#0)<k#1>}| :next |!{$(in_main#0)<k#1>}.next|))
(define-fun .def_116 () Bool (= .def_14 |!{$(in_main#0)<k#1>}.next|))
(define-fun .def_373 () Bool (and .def_116 .def_372))
(define-fun .def_374 () Bool (and .def_118 .def_373))
(define-fun .def_375 () Bool (and .def_120 .def_374))
(define-fun .def_376 () Bool (and .def_122 .def_375))
(define-fun .def_22 () Int (! |!{$(in_main#0)<v>}| :next |!{$(in_main#0)<v>}.next|))
(define-fun .def_124 () Bool (= .def_22 |!{$(in_main#0)<v>}.next|))
(define-fun .def_377 () Bool (and .def_124 .def_376))
(define-fun .def_379 () Bool (and .def_377 .def_378))
(define-fun .def_366 () Bool (not .def_365))
(define-fun .def_380 () Bool (and .def_366 .def_379))
(define-fun .def_392 () Bool (and .def_380 .def_391))
(define-fun .def_395 () Bool (or .def_392 .def_394))
(define-fun .def_357 () Bool (= .def_53 82))
(define-fun .def_361 () Bool (and .def_357 .def_360))
(define-fun .def_347 () Int (* (- 1) |!{$(in_main#0)<k#1>}.next|))
(define-fun .def_348 () Int (+ .def_14 .def_347))
(define-fun .def_349 () Bool (= .def_348 (- 1)))
(define-fun .def_350 () Bool (and .def_130 .def_349))
(define-fun .def_351 () Bool (and .def_118 .def_350))
(define-fun .def_352 () Bool (and .def_120 .def_351))
(define-fun .def_353 () Bool (and .def_122 .def_352))
(define-fun .def_354 () Bool (and .def_124 .def_353))
(define-fun .def_355 () Bool (and .def_126 .def_354))
(define-fun .def_329 () Bool (<= .def_8 .def_18))
(define-fun .def_356 () Bool (and .def_329 .def_355))
(define-fun .def_362 () Bool (and .def_356 .def_361))
(define-fun .def_322 () Bool (= !pc.next 82))
(define-fun .def_358 () Bool (and .def_322 .def_357))
(define-fun .def_298 () Int (* (- 1) |!{$(in_main#0)<l>}.next|))
(define-fun .def_339 () Int (+ .def_18 .def_298))
(define-fun .def_340 () Bool (= .def_339 (- 1)))
(define-fun .def_131 () Bool (and .def_116 .def_130))
(define-fun .def_143 () Bool (and .def_118 .def_131))
(define-fun .def_341 () Bool (and .def_143 .def_340))
(define-fun .def_342 () Bool (and .def_122 .def_341))
(define-fun .def_343 () Bool (and .def_124 .def_342))
(define-fun .def_344 () Bool (and .def_126 .def_343))
(define-fun .def_332 () Int (select .def_24 .def_18))
(define-fun .def_331 () Int (select .def_24 .def_14))
(define-fun .def_333 () Bool (<= .def_331 .def_332))
(define-fun .def_334 () Int (ite .def_333 1 0))
(define-fun .def_335 () Bool (= .def_334 0))
(define-fun .def_336 () Bool (not .def_335))
(define-fun .def_345 () Bool (and .def_336 .def_344))
(define-fun .def_330 () Bool (not .def_329))
(define-fun .def_346 () Bool (and .def_330 .def_345))
(define-fun .def_359 () Bool (and .def_346 .def_358))
(define-fun .def_363 () Bool (or .def_359 .def_362))
(define-fun .def_320 () Bool (= .def_53 74))
(define-fun .def_281 () Bool (= !pc.next 114))
(define-fun .def_325 () Bool (and .def_281 .def_320))
(define-fun .def_314 () Bool (= |!{$(in_main#0)<lo>}.next| 0))
(define-fun .def_306 () Int (* (- 1) |!{$(in_main#0)<hi>}.next|))
(define-fun .def_307 () Int (+ .def_8 .def_306))
(define-fun .def_308 () Bool (= .def_307 1))
(define-fun .def_309 () Bool (and .def_110 .def_308))
(define-fun .def_310 () Bool (and .def_114 .def_309))
(define-fun .def_311 () Bool (and .def_116 .def_310))
(define-fun .def_312 () Bool (and .def_118 .def_311))
(define-fun .def_313 () Bool (and .def_120 .def_312))
(define-fun .def_315 () Bool (and .def_313 .def_314))
(define-fun .def_316 () Bool (and .def_124 .def_315))
(define-fun .def_317 () Bool (and .def_126 .def_316))
(define-fun .def_293 () Int (* (- 1) .def_14))
(define-fun .def_294 () Int (+ .def_8 .def_293))
(define-fun .def_295 () Bool (<= .def_294 1))
(define-fun .def_318 () Bool (and .def_295 .def_317))
(define-fun .def_326 () Bool (and .def_318 .def_325))
(define-fun .def_323 () Bool (and .def_320 .def_322))
(define-fun .def_299 () Int (+ .def_14 .def_298))
(define-fun .def_300 () Bool (= .def_299 (- 1)))
(define-fun .def_301 () Bool (and .def_143 .def_300))
(define-fun .def_302 () Bool (and .def_122 .def_301))
(define-fun .def_303 () Bool (and .def_124 .def_302))
(define-fun .def_304 () Bool (and .def_126 .def_303))
(define-fun .def_296 () Bool (not .def_295))
(define-fun .def_305 () Bool (and .def_296 .def_304))
(define-fun .def_324 () Bool (and .def_305 .def_323))
(define-fun .def_327 () Bool (or .def_324 .def_326))
(define-fun .def_280 () Bool (= .def_53 114))
(define-fun .def_155 () Bool (= !pc.next 184))
(define-fun .def_288 () Bool (and .def_155 .def_280))
(define-fun .def_270 () Bool (= |!{$(in_main#0)<k#2>}.next| 0))
(define-fun .def_271 () Bool (and .def_131 .def_270))
(define-fun .def_272 () Bool (and .def_120 .def_271))
(define-fun .def_273 () Bool (and .def_122 .def_272))
(define-fun .def_274 () Bool (and .def_124 .def_273))
(define-fun .def_275 () Bool (and .def_126 .def_274))
(define-fun .def_219 () Bool (= |%{$(in_main#0)<idx>}#3| (- 1)))
(define-fun .def_276 () Bool (and .def_219 .def_275))
(define-fun .def_227 () Bool (= .def_20 |%{$(in_main#0)<idx>}#3|))
(define-fun .def_207 () Int (select .def_24 .def_20))
(define-fun .def_208 () Bool (= .def_22 .def_207))
(define-fun .def_228 () Bool (and .def_208 .def_227))
(define-fun .def_220 () Bool (= .def_10 |%{$(in_main#0)<idx>}#3|))
(define-fun .def_210 () Int (select .def_24 .def_10))
(define-fun .def_211 () Bool (= .def_22 .def_210))
(define-fun .def_222 () Bool (and .def_211 .def_220))
(define-fun .def_212 () Bool (not .def_211))
(define-fun .def_221 () Bool (and .def_212 .def_219))
(define-fun .def_223 () Bool (or .def_221 .def_222))
(define-fun .def_209 () Bool (not .def_208))
(define-fun .def_224 () Bool (and .def_209 .def_223))
(define-fun .def_229 () Bool (or .def_224 .def_228))
(define-fun .def_277 () Bool (and .def_229 .def_276))
(define-fun .def_169 () Int (* (- 1) .def_20))
(define-fun .def_170 () Int (+ .def_10 .def_169))
(define-fun .def_171 () Bool (<= .def_170 1))
(define-fun .def_278 () Bool (and .def_171 .def_277))
(define-fun .def_289 () Bool (and .def_278 .def_288))
(define-fun .def_284 () Bool (= !pc.next 230))
(define-fun .def_285 () Bool (and .def_280 .def_284))
(define-fun .def_232 () Int (select .def_24 |%{$(in_main#0)<idx>}#3|))
(define-fun .def_233 () Bool (= .def_22 .def_232))
(define-fun .def_234 () Int (ite .def_233 1 0))
(define-fun .def_235 () Bool (= .def_234 0))
(define-fun .def_258 () Bool (and .def_110 .def_235))
(define-fun .def_259 () Bool (and .def_112 .def_258))
(define-fun .def_260 () Bool (and .def_114 .def_259))
(define-fun .def_261 () Bool (and .def_116 .def_260))
(define-fun .def_262 () Bool (and .def_118 .def_261))
(define-fun .def_263 () Bool (and .def_120 .def_262))
(define-fun .def_264 () Bool (and .def_122 .def_263))
(define-fun .def_265 () Bool (and .def_124 .def_264))
(define-fun .def_266 () Bool (and .def_126 .def_265))
(define-fun .def_231 () Bool (not .def_219))
(define-fun .def_267 () Bool (and .def_231 .def_266))
(define-fun .def_268 () Bool (and .def_229 .def_267))
(define-fun .def_269 () Bool (and .def_171 .def_268))
(define-fun .def_286 () Bool (and .def_269 .def_285))
(define-fun .def_282 () Bool (and .def_280 .def_281))
(define-fun .def_251 () Bool (= |!{$(in_main#0)<lo>}.next| |%{$(in_main#0)<lo>}#2|))
(define-fun .def_245 () Bool (= |!{$(in_main#0)<hi>}.next| |%{$(in_main#0)<hi>}#2|))
(define-fun .def_246 () Bool (and .def_110 .def_245))
(define-fun .def_247 () Bool (and .def_114 .def_246))
(define-fun .def_248 () Bool (and .def_116 .def_247))
(define-fun .def_249 () Bool (and .def_118 .def_248))
(define-fun .def_250 () Bool (and .def_120 .def_249))
(define-fun .def_252 () Bool (and .def_250 .def_251))
(define-fun .def_253 () Bool (and .def_124 .def_252))
(define-fun .def_254 () Bool (and .def_126 .def_253))
(define-fun .def_201 () Bool (= .def_20 |%{$(in_main#0)<lo>}#2|))
(define-fun .def_191 () Bool (= |!{$(in_main#0)<$(in___VERIFIER_nondet_int#5)<h#<__VERIFIER_nondet_int.return>>>}| |%{$(in_main#0)<hi>}#2|))
(define-fun .def_180 () Int (select .def_24 |!{$(in_main#0)<$(in___VERIFIER_nondet_int#5)<h#<__VERIFIER_nondet_int.return>>>}|))
(define-fun .def_181 () Bool (<= .def_22 .def_180))
(define-fun .def_193 () Bool (and .def_181 .def_191))
(define-fun .def_203 () Bool (and .def_193 .def_201))
(define-fun .def_198 () Int (* (- 1) |%{$(in_main#0)<lo>}#2|))
(define-fun .def_199 () Int (+ |!{$(in_main#0)<$(in___VERIFIER_nondet_int#5)<h#<__VERIFIER_nondet_int.return>>>}| .def_198))
(define-fun .def_200 () Bool (= .def_199 (- 1)))
(define-fun .def_190 () Bool (= .def_10 |%{$(in_main#0)<hi>}#2|))
(define-fun .def_182 () Bool (not .def_181))
(define-fun .def_192 () Bool (and .def_182 .def_190))
(define-fun .def_202 () Bool (and .def_192 .def_200))
(define-fun .def_204 () Bool (or .def_202 .def_203))
(define-fun .def_255 () Bool (and .def_204 .def_254))
(define-fun .def_174 () Bool (<= |!{$(in_main#0)<$(in___VERIFIER_nondet_int#5)<h#<__VERIFIER_nondet_int.return>>>}| .def_10))
(define-fun .def_173 () Bool (<= .def_20 |!{$(in_main#0)<$(in___VERIFIER_nondet_int#5)<h#<__VERIFIER_nondet_int.return>>>}|))
(define-fun .def_175 () Bool (and .def_173 .def_174))
(define-fun .def_176 () Int (ite .def_175 1 0))
(define-fun .def_177 () Bool (= .def_176 0))
(define-fun .def_178 () Bool (not .def_177))
(define-fun .def_256 () Bool (and .def_178 .def_255))
(define-fun .def_172 () Bool (not .def_171))
(define-fun .def_257 () Bool (and .def_172 .def_256))
(define-fun .def_283 () Bool (and .def_257 .def_282))
(define-fun .def_287 () Bool (or .def_283 .def_286))
(define-fun .def_290 () Bool (or .def_287 .def_289))
(define-fun .def_159 () Bool (= !pc.next 0))
(define-fun .def_150 () Bool (= .def_53 184))
(define-fun .def_160 () Bool (and .def_150 .def_159))
(define-fun .def_144 () Bool (and .def_120 .def_143))
(define-fun .def_145 () Bool (and .def_122 .def_144))
(define-fun .def_146 () Bool (and .def_124 .def_145))
(define-fun .def_147 () Bool (and .def_126 .def_146))
(define-fun .def_99 () Bool (<= .def_8 .def_16))
(define-fun .def_148 () Bool (and .def_99 .def_147))
(define-fun .def_161 () Bool (and .def_148 .def_160))
(define-fun .def_156 () Bool (and .def_150 .def_155))
(define-fun .def_133 () Int (* (- 1) |!{$(in_main#0)<k#2>}.next|))
(define-fun .def_134 () Int (+ .def_16 .def_133))
(define-fun .def_135 () Bool (= .def_134 (- 1)))
(define-fun .def_136 () Bool (and .def_131 .def_135))
(define-fun .def_137 () Bool (and .def_120 .def_136))
(define-fun .def_138 () Bool (and .def_122 .def_137))
(define-fun .def_139 () Bool (and .def_124 .def_138))
(define-fun .def_140 () Bool (and .def_126 .def_139))
(define-fun .def_101 () Int (select .def_24 .def_16))
(define-fun .def_102 () Bool (= .def_22 .def_101))
(define-fun .def_103 () Bool (not .def_102))
(define-fun .def_104 () Int (ite .def_103 1 0))
(define-fun .def_105 () Bool (= .def_104 0))
(define-fun .def_106 () Bool (not .def_105))
(define-fun .def_141 () Bool (and .def_106 .def_140))
(define-fun .def_100 () Bool (not .def_99))
(define-fun .def_142 () Bool (and .def_100 .def_141))
(define-fun .def_157 () Bool (and .def_142 .def_156))
(define-fun .def_152 () Bool (= !pc.next 204))
(define-fun .def_153 () Bool (and .def_150 .def_152))
(define-fun .def_111 () Bool (and .def_105 .def_110))
(define-fun .def_113 () Bool (and .def_111 .def_112))
(define-fun .def_115 () Bool (and .def_113 .def_114))
(define-fun .def_117 () Bool (and .def_115 .def_116))
(define-fun .def_119 () Bool (and .def_117 .def_118))
(define-fun .def_121 () Bool (and .def_119 .def_120))
(define-fun .def_123 () Bool (and .def_121 .def_122))
(define-fun .def_125 () Bool (and .def_123 .def_124))
(define-fun .def_127 () Bool (and .def_125 .def_126))
(define-fun .def_128 () Bool (and .def_100 .def_127))
(define-fun .def_154 () Bool (and .def_128 .def_153))
(define-fun .def_158 () Bool (or .def_154 .def_157))
(define-fun .def_162 () Bool (or .def_158 .def_161))
(define-fun .def_97 () Bool (and .def_56 .def_96))
(define-fun .def_92 () Bool (= |!{$(in_main#0)<array.1>}.next| |%{$(in_main#0)<array.1>}#1|))
(define-fun .def_90 () Bool (= |!{$(in_main#0)<v>}.next| |%{$(in_main#0)<v>}#1|))
(define-fun .def_88 () Bool (= |!{$(in_main#0)<lo>}.next| |%{$(in_main#0)<lo>}#1|))
(define-fun .def_86 () Bool (= |!{$(in_main#0)<l>}.next| |%{$(in_main#0)<l>}#1|))
(define-fun .def_84 () Bool (= |!{$(in_main#0)<k#2>}.next| |%{$(in_main#0)<k#2>}#1|))
(define-fun .def_82 () Bool (= |!{$(in_main#0)<k#1>}.next| |%{$(in_main#0)<k#1>}#1|))
(define-fun .def_80 () Bool (= |!{$(in_main#0)<k>}.next| 0))
(define-fun .def_78 () Bool (= |!{$(in_main#0)<hi>}.next| |%{$(in_main#0)<hi>}#1|))
(define-fun .def_77 () Bool (= |!{$(in_main#0)<N>}.next| |!{$(in_main#0)<$(in___VERIFIER_nondet_int#0)<h#<__VERIFIER_nondet_int.return>>>}|))
(define-fun .def_79 () Bool (and .def_77 .def_78))
(define-fun .def_81 () Bool (and .def_79 .def_80))
(define-fun .def_83 () Bool (and .def_81 .def_82))
(define-fun .def_85 () Bool (and .def_83 .def_84))
(define-fun .def_87 () Bool (and .def_85 .def_86))
(define-fun .def_89 () Bool (and .def_87 .def_88))
(define-fun .def_91 () Bool (and .def_89 .def_90))
(define-fun .def_93 () Bool (and .def_91 .def_92))
(define-fun .def_72 () Bool (<= |!{$(in_main#0)<$(in___VERIFIER_nondet_int#0)<h#<__VERIFIER_nondet_int.return>>>}| 0))
(define-fun .def_73 () Bool (not .def_72))
(define-fun .def_74 () Int (ite .def_73 1 0))
(define-fun .def_75 () Bool (= .def_74 0))
(define-fun .def_76 () Bool (not .def_75))
(define-fun .def_94 () Bool (and .def_76 .def_93))
(define-fun .def_98 () Bool (and .def_94 .def_97))
(define-fun .def_163 () Bool (or .def_98 .def_162))
(define-fun .def_291 () Bool (or .def_163 .def_290))
(define-fun .def_328 () Bool (or .def_291 .def_327))
(define-fun .def_364 () Bool (or .def_328 .def_363))
(define-fun .def_396 () Bool (! (or .def_364 .def_395) :trans true))
(define-fun .def_167 () Bool (= .def_53 230))
(define-fun .def_164 () Bool (= .def_53 204))
(define-fun .def_397 () Bool (or .def_164 .def_167))
(define-fun .def_398 () Bool (! (not .def_397) :invar-property 0 :invar-property-name ||))
(assert true)
